; Automatically generated by map2smt

(set-logic HORN)

(declare-datatypes ((treeOfInt 0) )
(((nodetreeOfInt (datatreeOfInt Int) (lefttreeOfInt treeOfInt) (righttreeOfInt treeOfInt)) (leaftreeOfInt))))
(declare-datatypes ((listOfInt 0) )
(((conslistOfInt (headlistOfInt Int) (taillistOfInt listOfInt)) (nillistOfInt))))



(declare-fun adt_new1 (listOfInt listOfInt Bool) Bool)
(declare-fun rev (listOfInt listOfInt) Bool)
(declare-fun append (listOfInt listOfInt listOfInt) Bool)
(declare-fun qreva (listOfInt listOfInt listOfInt) Bool)
(declare-fun leq (Int Int Bool) Bool)
(declare-fun qrevaflat (treeOfInt listOfInt listOfInt) Bool)
(declare-fun revflat (treeOfInt listOfInt) Bool)
(declare-fun ff () Bool)

(assert
    (rev nillistOfInt nillistOfInt)
)
(assert
  (forall ( (A Int) (B listOfInt) (C listOfInt) (D listOfInt) )
    (=>
      (and
        (rev B D)
        (append D (conslistOfInt A nillistOfInt) C)
      )
      (rev (conslistOfInt A B) C)
    )
  )
)
(assert
  (forall ( (A listOfInt) )
    (qreva nillistOfInt A A)
  )
)
(assert
  (forall ( (A Int) (B listOfInt) (C listOfInt) (D listOfInt) )
    (=>
      (qreva B (conslistOfInt A C) D)
      (qreva (conslistOfInt A B) C D)
    )
  )
)
(assert
  (forall ( (A Int) (B listOfInt) (C Bool) )
    (=>
      (= C false)
      (adt_new1 nillistOfInt (conslistOfInt A B) C)
    )
  )
)
(assert
  (forall ( (A Int) (B listOfInt) (C Bool) )
    (=>
      (= C false)
      (adt_new1 (conslistOfInt A B) nillistOfInt C)
    )
  )
)
(assert
  (forall ( (A Bool) )
    (=>
      (= A true)
      (adt_new1 nillistOfInt nillistOfInt A)
    )
  )
)
(assert
  (forall ( (A Int) (B listOfInt) (C Int) (D listOfInt) (E Bool) )
    (=>
      (and
        (= E false)
        (>= (- C A) 1)
      )
      (adt_new1 (conslistOfInt A B) (conslistOfInt C D) E)
    )
  )
)
(assert
  (forall ( (A Int) (B listOfInt) (C Int) (D listOfInt) (E Bool) )
    (=>
      (and
        (= E false)
        (<= (- C A) (- 1))
      )
      (adt_new1 (conslistOfInt A B) (conslistOfInt C D) E)
    )
  )
)
(assert
  (forall ( (A Int) (B listOfInt) (C listOfInt) (D Bool) )
    (=>
      (adt_new1 B C D)
      (adt_new1 (conslistOfInt A B) (conslistOfInt A C) D)
    )
  )
)
(assert
  (forall ( (A listOfInt) )
    (qrevaflat leaftreeOfInt A A)
  )
)
(assert
  (forall ( (A Int) (B treeOfInt) (C treeOfInt) (D listOfInt) (E listOfInt) (F listOfInt) )
    (=>
      (and
        (qrevaflat C D F)
        (qrevaflat B (conslistOfInt A F) E)
      )
      (qrevaflat (nodetreeOfInt A B C)  D E)
    )
  )
)
(assert
  (forall ( (A listOfInt) )
    (append nillistOfInt A A)
  )
)
(assert
  (forall ( (A Int) (B listOfInt) (C listOfInt) (D listOfInt) )
    (=>
      (append B C D)
      (append (conslistOfInt A B) C (conslistOfInt A D))
    )
  )
)
(assert
    (revflat leaftreeOfInt nillistOfInt)
)
(assert
  (forall ( (A Int) (B treeOfInt) (C treeOfInt) (D listOfInt) (E listOfInt) (F listOfInt) )
    (=>
      (and
        (revflat B E)
        (revflat C F)
        (append E (conslistOfInt A F) D)
      )
      (revflat (nodetreeOfInt A B C)  D)
    )
  )
)
(assert
  (forall ( (A Bool) (B treeOfInt) (C listOfInt) (D listOfInt) (E listOfInt) (F listOfInt) )
    (=>
      (and
        (= A false)
        (revflat B C)
        (append C D E)
        (qrevaflat B D F)
        (adt_new1 E F A)
      )
      ff
    )
  )
)

(assert (not ff))
(check-sat)
